cases/matpower/case6.m
ipopt
[info | PowerModels]: removing 3 cost terms from generator 6: Float64[]
[info | PowerModels]: removing 3 cost terms from generator 3: Float64[]
[warn | PowerModels]: multiple reference buses found, [4, 1], this can cause infeasibility if they are in the same connected component

******************************************************************************
This program contains Ipopt, a library for large-scale nonlinear optimization.
 Ipopt is released as open source code under the Eclipse Public License (EPL).
         For more information visit http://projects.coin-or.org/Ipopt
******************************************************************************

This is Ipopt version 3.13.2, running with linear solver mumps.
NOTE: Other linear solvers might be more efficient (see Ipopt documentation).

Number of nonzeros in equality constraint Jacobian...:      156
Number of nonzeros in inequality constraint Jacobian.:       48
Number of nonzeros in Lagrangian Hessian.............:      268

Total number of variables............................:       46
                     variables with only lower bounds:        0
                variables with lower and upper bounds:       40
                     variables with only upper bounds:        0
Total number of equality constraints.................:       38
Total number of inequality constraints...............:       24
        inequality constraints with only lower bounds:        6
   inequality constraints with lower and upper bounds:        0
        inequality constraints with only upper bounds:       18

iter    objective    inf_pr   inf_du lg(mu)  ||d||  lg(rg) alpha_du alpha_pr  ls
   0  1.2789987e+01 1.09e+00 1.67e+01  -1.0 0.00e+00    -  0.00e+00 0.00e+00   0
   1  4.2106067e+03 4.62e-01 1.04e+02  -1.0 1.81e+00    -  5.77e-03 5.76e-01h  1
   2  8.9007274e+03 1.36e-01 3.09e+01  -1.0 8.29e-01    -  8.15e-01 7.05e-01h  1
   3  9.2283602e+03 1.18e-01 2.67e+01  -1.0 2.99e-01    -  4.13e-01 1.37e-01h  1
   4  9.8687979e+03 8.25e-02 3.85e+01  -1.0 4.36e-01    -  4.94e-01 2.98e-01h  1
   5  1.0803899e+04 3.46e-02 2.51e+01  -1.0 3.62e-01    -  9.90e-01 5.81e-01h  1
   6  1.0823262e+04 3.37e-02 1.26e+02  -1.0 1.45e-01    -  1.84e-01 2.70e-02h  1
   7  1.1218993e+04 1.60e-02 5.13e+01  -1.0 2.53e-01    -  2.76e-01 5.25e-01h  1
   8  1.1406390e+04 8.53e-03 8.21e+01  -1.0 1.43e-01    -  7.00e-01 4.67e-01h  1
   9  1.1629091e+04 6.09e-04 2.19e+00  -1.0 5.77e-02    -  1.00e+00 1.00e+00h  1
iter    objective    inf_pr   inf_du lg(mu)  ||d||  lg(rg) alpha_du alpha_pr  ls
  10  1.1629263e+04 2.55e-05 7.81e-03  -1.0 1.23e-02    -  1.00e+00 1.00e+00h  1
  11  1.1625522e+04 1.60e-05 1.35e-02  -2.5 8.27e-03    -  1.00e+00 1.00e+00f  1
  12  1.1625293e+04 2.60e-07 1.15e-04  -3.8 1.05e-03    -  1.00e+00 1.00e+00f  1
  13  1.1625286e+04 1.32e-10 8.30e-08  -5.7 2.50e-05    -  1.00e+00 1.00e+00h  1
  14  1.1625286e+04 7.94e-15 6.48e-12  -8.6 1.78e-07    -  1.00e+00 1.00e+00h  1

Number of Iterations....: 14

                                   (scaled)                 (unscaled)
Objective...............:   2.3250571740144715e+03    1.1625285870072357e+04
Dual infeasibility......:   6.4815426410280471e-12    3.2407713205140235e-11
Constraint violation....:   7.9380946260698693e-15    7.9380946260698693e-15
Complementarity.........:   2.5102170848775469e-09    1.2551085424387733e-08
Overall NLP error.......:   2.5102170848775469e-09    1.2551085424387733e-08


Number of objective function evaluations             = 15
Number of objective gradient evaluations             = 15
Number of equality constraint evaluations            = 15
Number of inequality constraint evaluations          = 15
Number of equality constraint Jacobian evaluations   = 15
Number of inequality constraint Jacobian evaluations = 15
Number of Lagrangian Hessian evaluations             = 14
Total CPU secs in IPOPT (w/o function evaluations)   =      1.231
Total CPU secs in NLP function evaluations           =      2.242

EXIT: Optimal Solution Found.
Time to Solution........:4.1959898471832275
